c defined variables: 33 34 35 36 37 38 39 40 41 42 43 44 45 46 47 48 49 50 51 52 53 54 55 56 57 58 59 60 61 62 63 64 65 66 67 68 69 70 71 72 73 74 75 76 77 78 79 80 81 82 83 84 85 86 87 88 89 90 91 92 93 94 95 96 97 98 99 100 101 102 103 104 105 106 107 108 109 110 111 112 113 114 115 116 117 118 119 120 121 122 123 124 125 126 127 128 129 130 131 132 133 134 135 136 137 138 139 140 141 142 143 144 145 146 147 148 149 150 151 152 153 154 155 156 157 158 159 160 161 162 163 164 165 166 167 208 211 212 213 214 215 216 217 218 219 220 221 222 223 224 225 226 227 228 229 230 231 232 233 234 235 236 237 238 239 240 241 242 243 244 245 246 247 248 249 250 251 252 253 254 255 256 257 258 259 260 261 262 263 264 265 266 267 268 269 270 271 272 273 274 275 276 277 278 279 280 281 282 283 284 285 286 287 288 289 290 291 292 294 295 296 297 298 299 300 301 302 303 304 305 306 307 308 309 310 311 312 313 314 315 316 317 318 319 320 321 322 323 324 325 326 
p cnf 1418 2169
a 1 2 3 4 5 6 7 8 9 10 11 12 13 14 15 16 17 18 19 20 21 22 23 24 25 26 27 28 29 30 31 32 174 175 176 177 178 179 180 181 182 183 184 185 186 187 188 189 190 191 192 193 194 195 196 197 198 199 200 201 202 203 204 205 0
e 33 34 35 36 37 38 39 40 41 42 43 44 45 46 47 48 49 50 51 52 53 54 55 56 57 58 59 60 61 62 63 64 65 66 67 68 69 70 71 72 73 74 75 76 77 78 79 80 81 82 83 84 85 86 87 88 89 90 91 92 93 94 95 96 97 98 99 100 101 102 103 104 105 106 107 108 109 110 111 112 113 114 115 116 117 118 119 120 121 122 123 124 125 126 127 128 129 130 131 132 133 134 135 136 137 138 139 140 141 142 143 144 145 146 147 148 149 150 151 152 153 154 155 156 157 158 159 160 161 162 163 164 165 166 167 208 211 212 213 214 215 216 217 218 219 220 221 222 223 224 225 226 227 228 229 230 231 232 233 234 235 236 237 238 239 240 241 242 243 244 245 246 247 248 249 250 251 252 253 254 255 256 257 258 259 260 261 262 263 264 265 266 267 268 269 270 271 272 273 274 275 276 277 278 279 280 281 282 283 284 285 286 287 288 289 290 291 292 294 295 296 297 298 299 300 301 302 303 304 305 306 307 308 309 310 311 312 313 314 315 316 317 318 319 320 321 322 323 324 325 326 1131 1132 1133 1134 1135 1136 1137 1138 1139 1140 1141 1142 1143 1144 1145 1146 1147 1148 1149 1150 1151 1152 1153 1154 1155 1156 1157 1158 1159 1160 1161 1162 1163 1164 1165 1166 1167 1168 1169 1170 1171 1172 1173 1174 1175 1176 1177 1178 1179 1180 1181 1182 1183 1184 1185 1186 1187 1188 1189 1190 1191 1192 1193 1194 1195 1196 1197 1198 1199 1200 1201 1202 1203 1204 1205 1206 1207 1208 1209 1210 1211 1212 1213 1214 1215 1216 1217 1218 1219 1220 1221 1222 1223 1224 1225 1226 1227 1228 1229 1230 1231 1232 1233 1234 1235 1236 1237 1238 1239 1240 1241 1242 1243 1244 1245 1246 1247 1248 1249 1250 1251 1252 1253 1254 1255 1256 1257 1258 1259 1260 1261 1262 1263 1264 1265 1266 1267 1268 1269 1270 1271 1272 1273 1274 1275 1276 1277 1278 1279 1280 1281 1282 1283 1284 1285 1286 1287 1288 1289 1290 1291 1292 1293 1294 1295 1296 1297 1298 1299 1300 1301 1302 1303 1304 1305 1306 1307 1308 1309 1310 1311 1312 1313 1314 1315 1316 1317 1318 1319 1320 1321 1322 1323 1324 1325 1326 1327 1328 1329 1330 1331 1332 1333 1334 1335 1336 1337 1338 1339 1340 1341 1342 1343 1344 1345 1346 1347 1348 1349 1350 1351 1352 1353 1354 1355 1356 1357 1358 1359 1360 1361 1362 1363 1364 1365 1366 1367 1368 1369 1370 1371 1372 1373 1374 1375 1376 1377 1378 1379 1380 1381 1382 1383 1384 1385 1386 1387 1388 1389 1390 1391 1392 1393 1394 1395 1396 1397 1398 1399 1400 1401 1402 1403 1404 1405 1406 1407 1408 1409 1410 1411 1412 1413 1414 1415 1416 1417 1418 0
d 170 174 175 176 177 178 179 180 181 0
d 169 182 183 184 185 186 187 188 189 0
d 172 190 191 192 193 194 195 196 0
d 173 190 191 192 193 194 195 196 197 0
d 171 198 199 200 201 202 203 204 205 0
d 168 182 183 184 185 186 187 188 189 174 175 176 177 178 179 180 181 198 199 200 201 202 203 204 205 190 191 192 193 194 195 196 197 0
d 206 1 2 3 4 5 6 7 8 9 10 11 12 13 14 15 16 17 18 19 20 21 22 23 24 25 26 27 28 29 30 31 32 174 175 176 177 178 179 180 181 182 183 184 185 186 187 188 189 190 191 192 193 194 195 196 197 198 199 200 201 202 203 204 205 0
d 207 1 2 3 4 5 6 7 8 9 10 11 12 13 14 15 16 17 18 19 20 21 22 23 24 25 26 27 28 29 30 31 32 174 175 176 177 178 179 180 181 182 183 184 185 186 187 188 189 190 191 192 193 194 195 196 197 198 199 200 201 202 203 204 205 0
d 209 1 2 3 4 5 6 7 8 9 10 11 12 13 14 15 16 17 18 19 20 21 22 23 24 25 26 27 28 29 30 31 32 174 175 176 177 178 179 180 181 182 183 184 185 186 187 188 189 190 191 192 193 194 195 196 197 198 199 200 201 202 203 204 205 0
d 210 1 2 3 4 5 6 7 8 9 10 11 12 13 14 15 16 17 18 19 20 21 22 23 24 25 26 27 28 29 30 31 32 174 175 176 177 178 179 180 181 182 183 184 185 186 187 188 189 190 191 192 193 194 195 196 197 198 199 200 201 202 203 204 205 0
d 293 1 2 3 4 5 6 7 8 9 10 11 12 13 14 15 16 17 18 19 20 21 22 23 24 25 26 27 28 29 30 31 32 174 175 176 177 178 179 180 181 182 183 184 185 186 187 188 189 190 191 192 193 194 195 196 197 198 199 200 201 202 203 204 205 0
1131 -33 0
-1131 33 0
1132 -34 0
-1132 34 0
-1133 -35 0
1133 35 0
1134 -36 0
-1134 36 0
1135 -37 0
-1135 37 0
-1136 -38 0
1136 38 0
1137 -39 0
-1137 39 0
1138 -40 0
-1138 40 0
-1139 -41 0
1139 41 0
-12 -42 0
12 42 0
-1140 -43 0
1140 43 0
-11 -44 0
11 44 0
-1141 -45 0
1141 45 0
-10 -46 0
10 46 0
-1142 -47 0
1142 47 0
-9 -48 0
9 48 0
-1143 -49 0
1143 49 0
-49 -50 0
49 50 0
1144 -51 0
-1144 51 0
1146 -52 0
-1146 52 0
1148 -53 0
-1148 53 0
-1151 -54 0
1151 54 0
1152 -55 0
-1152 55 0
1153 -56 0
-1153 56 0
-1154 -57 0
1154 57 0
1155 -58 0
-1155 58 0
1156 -59 0
-1156 59 0
1157 -60 0
-1157 60 0
1158 -61 0
-1158 61 0
-1159 -62 0
1159 62 0
1160 -63 0
-1160 63 0
1161 -64 0
-1161 64 0
-1162 -65 0
1162 65 0
1163 -66 0
-1163 66 0
1164 -67 0
-1164 67 0
-1165 -68 0
1165 68 0
1166 -69 0
-1166 69 0
1167 -70 0
-1167 70 0
-1168 -71 0
1168 71 0
-8 -72 0
8 72 0
-1169 -73 0
1169 73 0
-7 -74 0
7 74 0
-1170 -75 0
1170 75 0
-6 -76 0
6 76 0
-1171 -77 0
1171 77 0
-5 -78 0
5 78 0
-1172 -79 0
1172 79 0
-79 -80 0
79 80 0
1173 -81 0
-1173 81 0
1175 -82 0
-1175 82 0
1177 -83 0
-1177 83 0
-1180 -84 0
1180 84 0
1181 -85 0
-1181 85 0
1182 -86 0
-1182 86 0
-1183 -87 0
1183 87 0
1184 -88 0
-1184 88 0
1185 -89 0
-1185 89 0
1186 -90 0
-1186 90 0
1187 -91 0
-1187 91 0
-1188 -92 0
1188 92 0
1189 -93 0
-1189 93 0
1190 -94 0
-1190 94 0
-1191 -95 0
1191 95 0
1192 -96 0
-1192 96 0
1193 -97 0
-1193 97 0
-1194 -98 0
1194 98 0
1195 -99 0
-1195 99 0
1196 -100 0
-1196 100 0
-1197 -101 0
1197 101 0
-4 -102 0
4 102 0
-1198 -103 0
1198 103 0
-3 -104 0
3 104 0
-1199 -105 0
1199 105 0
-2 -106 0
2 106 0
-1200 -107 0
1200 107 0
-1 -108 0
1 108 0
-1201 -109 0
1201 109 0
-109 -110 0
109 110 0
1202 -111 0
-1202 111 0
1204 -112 0
-1204 112 0
1206 -113 0
-1206 113 0
-1209 -114 0
1209 114 0
1210 -115 0
-1210 115 0
1211 -116 0
-1211 116 0
-1212 -117 0
1212 117 0
1213 -118 0
-1213 118 0
1214 -119 0
-1214 119 0
1215 -120 0
-1215 120 0
1216 -121 0
-1216 121 0
-1217 -122 0
1217 122 0
1218 -123 0
-1218 123 0
1219 -124 0
-1219 124 0
-1220 -125 0
1220 125 0
1221 -126 0
-1221 126 0
1222 -127 0
-1222 127 0
-1223 -128 0
1223 128 0
1224 -129 0
-1224 129 0
1225 -130 0
-1225 130 0
-1226 -131 0
1226 131 0
-16 -132 0
16 132 0
-1227 -133 0
1227 133 0
-15 -134 0
15 134 0
-1228 -135 0
1228 135 0
-14 -136 0
14 136 0
-1229 -137 0
1229 137 0
-13 -138 0
13 138 0
-1230 -139 0
1230 139 0
-139 -140 0
139 140 0
1231 -141 0
-1231 141 0
1233 -142 0
-1233 142 0
1235 -143 0
-1235 143 0
-1238 -144 0
1238 144 0
1239 -145 0
-1239 145 0
1240 -146 0
-1240 146 0
-1241 -147 0
1241 147 0
1242 -148 0
-1242 148 0
1243 -149 0
-1243 149 0
-144 -150 0
144 150 0
-1244 -151 0
1244 151 0
-54 -152 0
54 152 0
-1245 -153 0
1245 153 0
-84 -154 0
84 154 0
-1246 -155 0
1246 155 0
-114 -156 0
114 156 0
-1247 -157 0
1247 157 0
-157 -158 0
157 158 0
1248 -159 0
-1248 159 0
1250 -160 0
-1250 160 0
1252 -161 0
-1252 161 0
-1255 -162 0
1255 162 0
1256 -163 0
-1256 163 0
1257 -164 0
-1257 164 0
-1258 -165 0
1258 165 0
1259 -166 0
-1259 166 0
1260 -167 0
-1260 167 0
-1261 -208 0
1261 208 0
1160 -211 0
-1160 211 0
-1262 -212 0
1262 212 0
1163 -213 0
-1163 213 0
1164 -214 0
-1164 214 0
-1263 -215 0
1263 215 0
1166 -216 0
-1166 216 0
1167 -217 0
-1167 217 0
-1264 -218 0
1264 218 0
-8 -219 0
8 219 0
-1265 -220 0
1265 220 0
-7 -221 0
7 221 0
-1266 -222 0
1266 222 0
-6 -223 0
6 223 0
-1267 -224 0
1267 224 0
-5 -225 0
5 225 0
-1268 -226 0
1268 226 0
1181 -227 0
-1181 227 0
1182 -228 0
-1182 228 0
-1269 -229 0
1269 229 0
1131 -230 0
-1131 230 0
1132 -231 0
-1132 231 0
-1270 -232 0
1270 232 0
1134 -233 0
-1134 233 0
1135 -234 0
-1135 234 0
-1271 -235 0
1271 235 0
1137 -236 0
-1137 236 0
1138 -237 0
-1138 237 0
-1272 -238 0
1272 238 0
-12 -239 0
12 239 0
-1273 -240 0
1273 240 0
-11 -241 0
11 241 0
-1274 -242 0
1274 242 0
-10 -243 0
10 243 0
-1275 -244 0
1275 244 0
-9 -245 0
9 245 0
-1276 -246 0
1276 246 0
1152 -247 0
-1152 247 0
1153 -248 0
-1153 248 0
-1277 -249 0
1277 249 0
1218 -250 0
-1218 250 0
1219 -251 0
-1219 251 0
-1278 -252 0
1278 252 0
1221 -253 0
-1221 253 0
1222 -254 0
-1222 254 0
-1279 -255 0
1279 255 0
1224 -256 0
-1224 256 0
1225 -257 0
-1225 257 0
-1280 -258 0
1280 258 0
-16 -259 0
16 259 0
-1281 -260 0
1281 260 0
-15 -261 0
15 261 0
-1282 -262 0
1282 262 0
-14 -263 0
14 263 0
-1283 -264 0
1283 264 0
-13 -265 0
13 265 0
-1284 -266 0
1284 266 0
1239 -267 0
-1239 267 0
1240 -268 0
-1240 268 0
-1285 -269 0
1285 269 0
1189 -270 0
-1189 270 0
1190 -271 0
-1190 271 0
-1286 -272 0
1286 272 0
1192 -273 0
-1192 273 0
1193 -274 0
-1193 274 0
-1287 -275 0
1287 275 0
1195 -276 0
-1195 276 0
1196 -277 0
-1196 277 0
-1288 -278 0
1288 278 0
-4 -279 0
4 279 0
-1289 -280 0
1289 280 0
-3 -281 0
3 281 0
-1290 -282 0
1290 282 0
-2 -283 0
2 283 0
-1291 -284 0
1291 284 0
-1 -285 0
1 285 0
-1292 -286 0
1292 286 0
1210 -287 0
-1210 287 0
1211 -288 0
-1211 288 0
-1293 -289 0
1293 289 0
1296 -290 0
-1296 290 0
1299 -291 0
-1299 291 0
1302 -292 0
-1302 292 0
1304 -294 0
-1304 294 0
-1310 -295 0
1310 295 0
1313 -296 0
-1313 296 0
1316 -297 0
-1316 297 0
1319 -298 0
-1319 298 0
1324 -299 0
-1324 299 0
-1327 -300 0
1327 300 0
-1330 -301 0
1330 301 0
1334 -302 0
-1334 302 0
1342 -303 0
-1342 303 0
1350 -304 0
-1350 304 0
1353 -305 0
-1353 305 0
1356 -306 0
-1356 306 0
-1360 -307 0
1360 307 0
-1363 -308 0
1363 308 0
-1366 -309 0
1366 309 0
1369 -310 0
-1369 310 0
1372 -311 0
-1372 311 0
1375 -312 0
-1375 312 0
1378 -313 0
-1378 313 0
1381 -314 0
-1381 314 0
-1384 -315 0
1384 315 0
-1387 -316 0
1387 316 0
-1390 -317 0
1390 317 0
1393 -318 0
-1393 318 0
1396 -319 0
-1396 319 0
1399 -320 0
-1399 320 0
1403 -321 0
-1403 321 0
1406 -322 0
-1406 322 0
-1409 -323 0
1409 323 0
-1412 -324 0
1412 324 0
-1415 -325 0
1415 325 0
1418 -326 0
-1418 326 0
-33 -11 0
-33 27 0
11 -27 33 0
-34 11 0
-34 -27 0
-11 27 34 0
-33 35 0
-34 35 0
-35 33 34 0
-36 -10 0
-36 26 0
10 -26 36 0
-37 10 0
-37 -26 0
-10 26 37 0
-36 38 0
-37 38 0
-38 36 37 0
-39 -9 0
-39 25 0
9 -25 39 0
-40 9 0
-40 -25 0
-9 25 40 0
-39 41 0
-40 41 0
-41 39 40 0
-12 -42 0
12 42 0
-42 43 0
-28 43 0
-43 42 28 0
-11 -44 0
11 44 0
-44 45 0
-27 45 0
-45 44 27 0
-10 -46 0
10 46 0
-46 47 0
-26 47 0
-47 46 26 0
-9 -48 0
9 48 0
-48 49 0
-25 49 0
-49 48 25 0
-49 -50 0
49 50 0
-51 -41 0
-51 -47 0
41 47 51 0
-52 -38 0
-52 -41 0
-52 -45 0
38 41 45 52 0
-53 -35 0
-53 -38 0
-53 -41 0
-53 -43 0
35 38 41 43 53 0
-50 54 0
-51 54 0
-52 54 0
-53 54 0
-54 50 51 52 53 0
-55 -12 0
-55 28 0
12 -28 55 0
-56 12 0
-56 -28 0
-12 28 56 0
-55 57 0
-56 57 0
-57 55 56 0
-58 -57 0
-58 -35 0
-58 -38 0
-58 -41 0
57 35 38 41 58 0
-59 -54 0
-59 -58 0
54 58 59 0
-60 -54 0
-60 59 0
54 -59 60 0
-61 54 0
-61 -59 0
-54 59 61 0
-60 62 0
-61 62 0
-62 60 61 0
-63 -7 0
-63 23 0
7 -23 63 0
-64 7 0
-64 -23 0
-7 23 64 0
-63 65 0
-64 65 0
-65 63 64 0
-66 -6 0
-66 22 0
6 -22 66 0
-67 6 0
-67 -22 0
-6 22 67 0
-66 68 0
-67 68 0
-68 66 67 0
-69 -5 0
-69 21 0
5 -21 69 0
-70 5 0
-70 -21 0
-5 21 70 0
-69 71 0
-70 71 0
-71 69 70 0
-8 -72 0
8 72 0
-72 73 0
-24 73 0
-73 72 24 0
-7 -74 0
7 74 0
-74 75 0
-23 75 0
-75 74 23 0
-6 -76 0
6 76 0
-76 77 0
-22 77 0
-77 76 22 0
-5 -78 0
5 78 0
-78 79 0
-21 79 0
-79 78 21 0
-79 -80 0
79 80 0
-81 -71 0
-81 -77 0
71 77 81 0
-82 -68 0
-82 -71 0
-82 -75 0
68 71 75 82 0
-83 -65 0
-83 -68 0
-83 -71 0
-83 -73 0
65 68 71 73 83 0
-80 84 0
-81 84 0
-82 84 0
-83 84 0
-84 80 81 82 83 0
-85 -8 0
-85 24 0
8 -24 85 0
-86 8 0
-86 -24 0
-8 24 86 0
-85 87 0
-86 87 0
-87 85 86 0
-88 -87 0
-88 -65 0
-88 -68 0
-88 -71 0
87 65 68 71 88 0
-89 -84 0
-89 -88 0
84 88 89 0
-90 -84 0
-90 89 0
84 -89 90 0
-91 84 0
-91 -89 0
-84 89 91 0
-90 92 0
-91 92 0
-92 90 91 0
-93 -3 0
-93 19 0
3 -19 93 0
-94 3 0
-94 -19 0
-3 19 94 0
-93 95 0
-94 95 0
-95 93 94 0
-96 -2 0
-96 18 0
2 -18 96 0
-97 2 0
-97 -18 0
-2 18 97 0
-96 98 0
-97 98 0
-98 96 97 0
-99 -1 0
-99 17 0
1 -17 99 0
-100 1 0
-100 -17 0
-1 17 100 0
-99 101 0
-100 101 0
-101 99 100 0
-4 -102 0
4 102 0
-102 103 0
-20 103 0
-103 102 20 0
-3 -104 0
3 104 0
-104 105 0
-19 105 0
-105 104 19 0
-2 -106 0
2 106 0
-106 107 0
-18 107 0
-107 106 18 0
-1 -108 0
1 108 0
-108 109 0
-17 109 0
-109 108 17 0
-109 -110 0
109 110 0
-111 -101 0
-111 -107 0
101 107 111 0
-112 -98 0
-112 -101 0
-112 -105 0
98 101 105 112 0
-113 -95 0
-113 -98 0
-113 -101 0
-113 -103 0
95 98 101 103 113 0
-110 114 0
-111 114 0
-112 114 0
-113 114 0
-114 110 111 112 113 0
-115 -4 0
-115 20 0
4 -20 115 0
-116 4 0
-116 -20 0
-4 20 116 0
-115 117 0
-116 117 0
-117 115 116 0
-118 -117 0
-118 -95 0
-118 -98 0
-118 -101 0
117 95 98 101 118 0
-119 -114 0
-119 -118 0
114 118 119 0
-120 -114 0
-120 119 0
114 -119 120 0
-121 114 0
-121 -119 0
-114 119 121 0
-120 122 0
-121 122 0
-122 120 121 0
-123 -15 0
-123 31 0
15 -31 123 0
-124 15 0
-124 -31 0
-15 31 124 0
-123 125 0
-124 125 0
-125 123 124 0
-126 -14 0
-126 30 0
14 -30 126 0
-127 14 0
-127 -30 0
-14 30 127 0
-126 128 0
-127 128 0
-128 126 127 0
-129 -13 0
-129 29 0
13 -29 129 0
-130 13 0
-130 -29 0
-13 29 130 0
-129 131 0
-130 131 0
-131 129 130 0
-16 -132 0
16 132 0
-132 133 0
-32 133 0
-133 132 32 0
-15 -134 0
15 134 0
-134 135 0
-31 135 0
-135 134 31 0
-14 -136 0
14 136 0
-136 137 0
-30 137 0
-137 136 30 0
-13 -138 0
13 138 0
-138 139 0
-29 139 0
-139 138 29 0
-139 -140 0
139 140 0
-141 -131 0
-141 -137 0
131 137 141 0
-142 -128 0
-142 -131 0
-142 -135 0
128 131 135 142 0
-143 -125 0
-143 -128 0
-143 -131 0
-143 -133 0
125 128 131 133 143 0
-140 144 0
-141 144 0
-142 144 0
-143 144 0
-144 140 141 142 143 0
-145 -16 0
-145 32 0
16 -32 145 0
-146 16 0
-146 -32 0
-16 32 146 0
-145 147 0
-146 147 0
-147 145 146 0
-148 -147 0
-148 -125 0
-148 -128 0
-148 -131 0
147 125 128 131 148 0
-149 -144 0
-149 -148 0
144 148 149 0
-144 -150 0
144 150 0
-150 151 0
-149 151 0
-151 150 149 0
-54 -152 0
54 152 0
-152 153 0
-59 153 0
-153 152 59 0
-84 -154 0
84 154 0
-154 155 0
-89 155 0
-155 154 89 0
-114 -156 0
114 156 0
-156 157 0
-119 157 0
-157 156 119 0
-157 -158 0
157 158 0
-159 -122 0
-159 -155 0
122 155 159 0
-160 -92 0
-160 -122 0
-160 -153 0
92 122 153 160 0
-161 -62 0
-161 -92 0
-161 -122 0
-161 -151 0
62 92 122 151 161 0
-158 162 0
-159 162 0
-160 162 0
-161 162 0
-162 158 159 160 161 0
-163 -144 0
-163 149 0
144 -149 163 0
-164 144 0
-164 -149 0
-144 149 164 0
-163 165 0
-164 165 0
-165 163 164 0
-166 -165 0
-166 -62 0
-166 -92 0
-166 -122 0
165 62 92 122 166 0
-167 -162 0
-167 -166 0
162 166 167 0
-206 -172 0
-206 173 0
172 -173 206 0
-207 172 0
-207 -173 0
-172 173 207 0
-206 208 0
-207 208 0
-208 206 207 0
-209 -208 0
-209 -169 0
-209 -170 0
-209 -171 0
208 169 170 171 209 0
-210 -168 0
-210 -209 0
168 209 210 0
-211 -7 0
-211 23 0
7 -23 211 0
-211 212 0
-7 212 0
-212 211 7 0
-213 -6 0
-213 22 0
6 -22 213 0
-214 6 0
-214 -22 0
-6 22 214 0
-213 215 0
-214 215 0
-215 213 214 0
-216 -5 0
-216 21 0
5 -21 216 0
-217 5 0
-217 -21 0
-5 21 217 0
-216 218 0
-217 218 0
-218 216 217 0
-8 -219 0
8 219 0
-219 220 0
-24 220 0
-220 219 24 0
-7 -221 0
7 221 0
-221 222 0
-23 222 0
-222 221 23 0
-6 -223 0
6 223 0
-223 224 0
-22 224 0
-224 223 22 0
-5 -225 0
5 225 0
-225 226 0
-21 226 0
-226 225 21 0
-227 -8 0
-227 24 0
8 -24 227 0
-228 8 0
-228 -24 0
-8 24 228 0
-227 229 0
-228 229 0
-229 227 228 0
-230 -11 0
-230 27 0
11 -27 230 0
-231 11 0
-231 -27 0
-11 27 231 0
-230 232 0
-231 232 0
-232 230 231 0
-233 -10 0
-233 26 0
10 -26 233 0
-234 10 0
-234 -26 0
-10 26 234 0
-233 235 0
-234 235 0
-235 233 234 0
-236 -9 0
-236 25 0
9 -25 236 0
-237 9 0
-237 -25 0
-9 25 237 0
-236 238 0
-237 238 0
-238 236 237 0
-12 -239 0
12 239 0
-239 240 0
-28 240 0
-240 239 28 0
-11 -241 0
11 241 0
-241 242 0
-27 242 0
-242 241 27 0
-10 -243 0
10 243 0
-243 244 0
-26 244 0
-244 243 26 0
-9 -245 0
9 245 0
-245 246 0
-25 246 0
-246 245 25 0
-247 -12 0
-247 28 0
12 -28 247 0
-248 12 0
-248 -28 0
-12 28 248 0
-247 249 0
-248 249 0
-249 247 248 0
-250 -15 0
-250 31 0
15 -31 250 0
-251 15 0
-251 -31 0
-15 31 251 0
-250 252 0
-251 252 0
-252 250 251 0
-253 -14 0
-253 30 0
14 -30 253 0
-254 14 0
-254 -30 0
-14 30 254 0
-253 255 0
-254 255 0
-255 253 254 0
-256 -13 0
-256 29 0
13 -29 256 0
-257 13 0
-257 -29 0
-13 29 257 0
-256 258 0
-257 258 0
-258 256 257 0
-16 -259 0
16 259 0
-259 260 0
-32 260 0
-260 259 32 0
-15 -261 0
15 261 0
-261 262 0
-31 262 0
-262 261 31 0
-14 -263 0
14 263 0
-263 264 0
-30 264 0
-264 263 30 0
-13 -265 0
13 265 0
-265 266 0
-29 266 0
-266 265 29 0
-267 -16 0
-267 32 0
16 -32 267 0
-268 16 0
-268 -32 0
-16 32 268 0
-267 269 0
-268 269 0
-269 267 268 0
-270 -3 0
-270 19 0
3 -19 270 0
-271 3 0
-271 -19 0
-3 19 271 0
-270 272 0
-271 272 0
-272 270 271 0
-273 -2 0
-273 18 0
2 -18 273 0
-274 2 0
-274 -18 0
-2 18 274 0
-273 275 0
-274 275 0
-275 273 274 0
-276 -1 0
-276 17 0
1 -17 276 0
-277 1 0
-277 -17 0
-1 17 277 0
-276 278 0
-277 278 0
-278 276 277 0
-4 -279 0
4 279 0
-279 280 0
-20 280 0
-280 279 20 0
-3 -281 0
3 281 0
-281 282 0
-19 282 0
-282 281 19 0
-2 -283 0
2 283 0
-283 284 0
-18 284 0
-284 283 18 0
-1 -285 0
1 285 0
-285 286 0
-17 286 0
-286 285 17 0
-287 -4 0
-287 20 0
4 -20 287 0
-288 4 0
-288 -20 0
-4 20 288 0
-287 289 0
-288 289 0
-289 287 288 0
-290 -289 0
-290 -272 0
-290 -275 0
-290 -278 0
289 272 275 278 290 0
-291 -167 210 0
-291 167 -210 0
291 -167 -210 0
291 167 210 0
-292 -166 209 0
-292 166 -209 0
292 -166 -209 0
292 166 209 0
-293 -162 168 0
-293 162 -168 0
293 -162 -168 0
293 162 168 0
-291 -292 -293 294 0
-294 291 0
-294 292 0
-294 293 0
-212 -174 -295 0
-212 174 295 0
212 -174 295 0
212 174 -295 0
-215 -175 -296 0
-215 175 296 0
215 -175 296 0
215 175 -296 0
-218 -176 -297 0
-218 176 297 0
218 -176 297 0
218 176 -297 0
-220 -177 -298 0
-220 177 298 0
220 -177 298 0
220 177 -298 0
-222 -178 -299 0
-222 178 299 0
222 -178 299 0
222 178 -299 0
-224 -179 -300 0
-224 179 300 0
224 -179 300 0
224 179 -300 0
-226 -180 -301 0
-226 180 301 0
226 -180 301 0
226 180 -301 0
-229 -181 -302 0
-229 181 302 0
229 -181 302 0
229 181 -302 0
-232 -182 -303 0
-232 182 303 0
232 -182 303 0
232 182 -303 0
-235 -183 -304 0
-235 183 304 0
235 -183 304 0
235 183 -304 0
-238 -184 -305 0
-238 184 305 0
238 -184 305 0
238 184 -305 0
-240 -185 -306 0
-240 185 306 0
240 -185 306 0
240 185 -306 0
-242 -186 -307 0
-242 186 307 0
242 -186 307 0
242 186 -307 0
-244 -187 -308 0
-244 187 308 0
244 -187 308 0
244 187 -308 0
-246 -188 -309 0
-246 188 309 0
246 -188 309 0
246 188 -309 0
-249 -189 -310 0
-249 189 310 0
249 -189 310 0
249 189 -310 0
-252 -190 -311 0
-252 190 311 0
252 -190 311 0
252 190 -311 0
-255 -191 -312 0
-255 191 312 0
255 -191 312 0
255 191 -312 0
-258 -192 -313 0
-258 192 313 0
258 -192 313 0
258 192 -313 0
-260 -193 -314 0
-260 193 314 0
260 -193 314 0
260 193 -314 0
-262 -194 -315 0
-262 194 315 0
262 -194 315 0
262 194 -315 0
-264 -195 -316 0
-264 195 316 0
264 -195 316 0
264 195 -316 0
-266 -196 -317 0
-266 196 317 0
266 -196 317 0
266 196 -317 0
-269 -197 -318 0
-269 197 318 0
269 -197 318 0
269 197 -318 0
-272 -198 -319 0
-272 198 319 0
272 -198 319 0
272 198 -319 0
-275 -199 -320 0
-275 199 320 0
275 -199 320 0
275 199 -320 0
-278 -200 -321 0
-278 200 321 0
278 -200 321 0
278 200 -321 0
-280 -201 -322 0
-280 201 322 0
280 -201 322 0
280 201 -322 0
-282 -202 -323 0
-282 202 323 0
282 -202 323 0
282 202 -323 0
-284 -203 -324 0
-284 203 324 0
284 -203 324 0
284 203 -324 0
-286 -204 -325 0
-286 204 325 0
286 -204 325 0
286 204 -325 0
-290 -205 -326 0
-290 205 326 0
290 -205 326 0
290 205 -326 0
295 296 297 298 299 300 301 302 303 304 305 306 307 308 309 310 311 312 313 314 315 316 317 318 319 320 321 322 323 324 325 326 294 0
-11 -1131 0
27 -1131 0
11 -27 1131 0
11 -1132 0
-27 -1132 0
-11 27 1132 0
-33 -1133 0
-34 -1133 0
33 34 1133 0
-10 -1134 0
26 -1134 0
10 -26 1134 0
10 -1135 0
-26 -1135 0
-10 26 1135 0
-36 -1136 0
-37 -1136 0
36 37 1136 0
-9 -1137 0
25 -1137 0
9 -25 1137 0
9 -1138 0
-25 -1138 0
-9 25 1138 0
-39 -1139 0
-40 -1139 0
39 40 1139 0
-28 -1140 0
-42 -1140 0
28 42 1140 0
-27 -1141 0
-44 -1141 0
27 44 1141 0
-26 -1142 0
-46 -1142 0
26 46 1142 0
-25 -1143 0
-48 -1143 0
25 48 1143 0
-41 -1144 0
-47 -1144 0
41 47 1144 0
-38 -1145 0
-41 -1145 0
38 41 1145 0
-45 -1146 0
1145 -1146 0
45 -1145 1146 0
-35 -1147 0
1145 -1147 0
35 -1145 1147 0
-43 -1148 0
1147 -1148 0
43 -1147 1148 0
-50 -1149 0
-51 -1149 0
50 51 1149 0
-52 -1150 0
-53 -1150 0
52 53 1150 0
1149 -1151 0
1150 -1151 0
-1149 -1150 1151 0
-12 -1152 0
28 -1152 0
12 -28 1152 0
12 -1153 0
-28 -1153 0
-12 28 1153 0
-55 -1154 0
-56 -1154 0
55 56 1154 0
-57 -1155 0
1147 -1155 0
57 -1147 1155 0
-54 -1156 0
-58 -1156 0
54 58 1156 0
-54 -1157 0
59 -1157 0
54 -59 1157 0
54 -1158 0
-59 -1158 0
-54 59 1158 0
-60 -1159 0
-61 -1159 0
60 61 1159 0
-7 -1160 0
23 -1160 0
7 -23 1160 0
7 -1161 0
-23 -1161 0
-7 23 1161 0
-63 -1162 0
-64 -1162 0
63 64 1162 0
-6 -1163 0
22 -1163 0
6 -22 1163 0
6 -1164 0
-22 -1164 0
-6 22 1164 0
-66 -1165 0
-67 -1165 0
66 67 1165 0
-5 -1166 0
21 -1166 0
5 -21 1166 0
5 -1167 0
-21 -1167 0
-5 21 1167 0
-69 -1168 0
-70 -1168 0
69 70 1168 0
-24 -1169 0
-72 -1169 0
24 72 1169 0
-23 -1170 0
-74 -1170 0
23 74 1170 0
-22 -1171 0
-76 -1171 0
22 76 1171 0
-21 -1172 0
-78 -1172 0
21 78 1172 0
-71 -1173 0
-77 -1173 0
71 77 1173 0
-68 -1174 0
-71 -1174 0
68 71 1174 0
-75 -1175 0
1174 -1175 0
75 -1174 1175 0
-65 -1176 0
1174 -1176 0
65 -1174 1176 0
-73 -1177 0
1176 -1177 0
73 -1176 1177 0
-80 -1178 0
-81 -1178 0
80 81 1178 0
-82 -1179 0
-83 -1179 0
82 83 1179 0
1178 -1180 0
1179 -1180 0
-1178 -1179 1180 0
-8 -1181 0
24 -1181 0
8 -24 1181 0
8 -1182 0
-24 -1182 0
-8 24 1182 0
-85 -1183 0
-86 -1183 0
85 86 1183 0
-87 -1184 0
1176 -1184 0
87 -1176 1184 0
-84 -1185 0
-88 -1185 0
84 88 1185 0
-84 -1186 0
89 -1186 0
84 -89 1186 0
84 -1187 0
-89 -1187 0
-84 89 1187 0
-90 -1188 0
-91 -1188 0
90 91 1188 0
-3 -1189 0
19 -1189 0
3 -19 1189 0
3 -1190 0
-19 -1190 0
-3 19 1190 0
-93 -1191 0
-94 -1191 0
93 94 1191 0
-2 -1192 0
18 -1192 0
2 -18 1192 0
2 -1193 0
-18 -1193 0
-2 18 1193 0
-96 -1194 0
-97 -1194 0
96 97 1194 0
-1 -1195 0
17 -1195 0
1 -17 1195 0
1 -1196 0
-17 -1196 0
-1 17 1196 0
-99 -1197 0
-100 -1197 0
99 100 1197 0
-20 -1198 0
-102 -1198 0
20 102 1198 0
-19 -1199 0
-104 -1199 0
19 104 1199 0
-18 -1200 0
-106 -1200 0
18 106 1200 0
-17 -1201 0
-108 -1201 0
17 108 1201 0
-101 -1202 0
-107 -1202 0
101 107 1202 0
-98 -1203 0
-101 -1203 0
98 101 1203 0
-105 -1204 0
1203 -1204 0
105 -1203 1204 0
-95 -1205 0
1203 -1205 0
95 -1203 1205 0
-103 -1206 0
1205 -1206 0
103 -1205 1206 0
-110 -1207 0
-111 -1207 0
110 111 1207 0
-112 -1208 0
-113 -1208 0
112 113 1208 0
1207 -1209 0
1208 -1209 0
-1207 -1208 1209 0
-4 -1210 0
20 -1210 0
4 -20 1210 0
4 -1211 0
-20 -1211 0
-4 20 1211 0
-115 -1212 0
-116 -1212 0
115 116 1212 0
-117 -1213 0
1205 -1213 0
117 -1205 1213 0
-114 -1214 0
-118 -1214 0
114 118 1214 0
-114 -1215 0
119 -1215 0
114 -119 1215 0
114 -1216 0
-119 -1216 0
-114 119 1216 0
-120 -1217 0
-121 -1217 0
120 121 1217 0
-15 -1218 0
31 -1218 0
15 -31 1218 0
15 -1219 0
-31 -1219 0
-15 31 1219 0
-123 -1220 0
-124 -1220 0
123 124 1220 0
-14 -1221 0
30 -1221 0
14 -30 1221 0
14 -1222 0
-30 -1222 0
-14 30 1222 0
-126 -1223 0
-127 -1223 0
126 127 1223 0
-13 -1224 0
29 -1224 0
13 -29 1224 0
13 -1225 0
-29 -1225 0
-13 29 1225 0
-129 -1226 0
-130 -1226 0
129 130 1226 0
-32 -1227 0
-132 -1227 0
32 132 1227 0
-31 -1228 0
-134 -1228 0
31 134 1228 0
-30 -1229 0
-136 -1229 0
30 136 1229 0
-29 -1230 0
-138 -1230 0
29 138 1230 0
-131 -1231 0
-137 -1231 0
131 137 1231 0
-128 -1232 0
-131 -1232 0
128 131 1232 0
-135 -1233 0
1232 -1233 0
135 -1232 1233 0
-125 -1234 0
1232 -1234 0
125 -1232 1234 0
-133 -1235 0
1234 -1235 0
133 -1234 1235 0
-140 -1236 0
-141 -1236 0
140 141 1236 0
-142 -1237 0
-143 -1237 0
142 143 1237 0
1236 -1238 0
1237 -1238 0
-1236 -1237 1238 0
-16 -1239 0
32 -1239 0
16 -32 1239 0
16 -1240 0
-32 -1240 0
-16 32 1240 0
-145 -1241 0
-146 -1241 0
145 146 1241 0
-147 -1242 0
1234 -1242 0
147 -1234 1242 0
-144 -1243 0
-148 -1243 0
144 148 1243 0
-149 -1244 0
-150 -1244 0
149 150 1244 0
-59 -1245 0
-152 -1245 0
59 152 1245 0
-89 -1246 0
-154 -1246 0
89 154 1246 0
-119 -1247 0
-156 -1247 0
119 156 1247 0
-122 -1248 0
-155 -1248 0
122 155 1248 0
-92 -1249 0
-122 -1249 0
92 122 1249 0
-153 -1250 0
1249 -1250 0
153 -1249 1250 0
-62 -1251 0
1249 -1251 0
62 -1249 1251 0
-151 -1252 0
1251 -1252 0
151 -1251 1252 0
-158 -1253 0
-159 -1253 0
158 159 1253 0
-160 -1254 0
-161 -1254 0
160 161 1254 0
1253 -1255 0
1254 -1255 0
-1253 -1254 1255 0
-144 -1256 0
149 -1256 0
144 -149 1256 0
144 -1257 0
-149 -1257 0
-144 149 1257 0
-163 -1258 0
-164 -1258 0
163 164 1258 0
-165 -1259 0
1251 -1259 0
165 -1251 1259 0
-162 -1260 0
-166 -1260 0
162 166 1260 0
-206 -1261 0
-207 -1261 0
206 207 1261 0
-7 -1262 0
-211 -1262 0
7 211 1262 0
-213 -1263 0
-214 -1263 0
213 214 1263 0
-216 -1264 0
-217 -1264 0
216 217 1264 0
-24 -1265 0
-219 -1265 0
24 219 1265 0
-23 -1266 0
-221 -1266 0
23 221 1266 0
-22 -1267 0
-223 -1267 0
22 223 1267 0
-21 -1268 0
-225 -1268 0
21 225 1268 0
-227 -1269 0
-228 -1269 0
227 228 1269 0
-230 -1270 0
-231 -1270 0
230 231 1270 0
-233 -1271 0
-234 -1271 0
233 234 1271 0
-236 -1272 0
-237 -1272 0
236 237 1272 0
-28 -1273 0
-239 -1273 0
28 239 1273 0
-27 -1274 0
-241 -1274 0
27 241 1274 0
-26 -1275 0
-243 -1275 0
26 243 1275 0
-25 -1276 0
-245 -1276 0
25 245 1276 0
-247 -1277 0
-248 -1277 0
247 248 1277 0
-250 -1278 0
-251 -1278 0
250 251 1278 0
-253 -1279 0
-254 -1279 0
253 254 1279 0
-256 -1280 0
-257 -1280 0
256 257 1280 0
-32 -1281 0
-259 -1281 0
32 259 1281 0
-31 -1282 0
-261 -1282 0
31 261 1282 0
-30 -1283 0
-263 -1283 0
30 263 1283 0
-29 -1284 0
-265 -1284 0
29 265 1284 0
-267 -1285 0
-268 -1285 0
267 268 1285 0
-270 -1286 0
-271 -1286 0
270 271 1286 0
-273 -1287 0
-274 -1287 0
273 274 1287 0
-276 -1288 0
-277 -1288 0
276 277 1288 0
-20 -1289 0
-279 -1289 0
20 279 1289 0
-19 -1290 0
-281 -1290 0
19 281 1290 0
-18 -1291 0
-283 -1291 0
18 283 1291 0
-17 -1292 0
-285 -1292 0
17 285 1292 0
-287 -1293 0
-288 -1293 0
287 288 1293 0
-272 -1294 0
-275 -1294 0
272 275 1294 0
-278 -1295 0
-289 -1295 0
278 289 1295 0
1294 -1296 0
1295 -1296 0
-1294 -1295 1296 0
167 -1297 0
-210 -1297 0
-167 210 1297 0
-167 -1298 0
210 -1298 0
167 -210 1298 0
-1297 -1299 0
-1298 -1299 0
1297 1298 1299 0
166 -1300 0
-209 -1300 0
-166 209 1300 0
-166 -1301 0
209 -1301 0
166 -209 1301 0
-1300 -1302 0
-1301 -1302 0
1300 1301 1302 0
291 -1303 0
292 -1303 0
-291 -292 1303 0
293 -1304 0
1303 -1304 0
-293 -1303 1304 0
-7 -1305 0
-23 -1305 0
7 23 1305 0
174 -1306 0
-212 -1306 0
-174 212 1306 0
1305 -1307 0
1306 -1307 0
-1305 -1306 1307 0
-174 -1308 0
212 -1308 0
174 -212 1308 0
-1305 -1309 0
1308 -1309 0
1305 -1308 1309 0
-1307 -1310 0
-1309 -1310 0
1307 1309 1310 0
-175 -1311 0
-215 -1311 0
175 215 1311 0
175 -1312 0
215 -1312 0
-175 -215 1312 0
-1311 -1313 0
-1312 -1313 0
1311 1312 1313 0
-176 -1314 0
-218 -1314 0
176 218 1314 0
176 -1315 0
218 -1315 0
-176 -218 1315 0
-1314 -1316 0
-1315 -1316 0
1314 1315 1316 0
-177 -1317 0
-220 -1317 0
177 220 1317 0
177 -1318 0
220 -1318 0
-177 -220 1318 0
-1317 -1319 0
-1318 -1319 0
1317 1318 1319 0
-178 -1320 0
222 -1320 0
178 -222 1320 0
-1161 -1321 0
-1320 -1321 0
1161 1320 1321 0
178 -1322 0
-222 -1322 0
-178 222 1322 0
1161 -1323 0
-1322 -1323 0
-1161 1322 1323 0
-1321 -1324 0
-1323 -1324 0
1321 1323 1324 0
-179 -1325 0
-1164 -1325 0
179 1164 1325 0
179 -1326 0
1164 -1326 0
-179 -1164 1326 0
-1325 -1327 0
-1326 -1327 0
1325 1326 1327 0
-180 -1328 0
-1167 -1328 0
180 1167 1328 0
180 -1329 0
1167 -1329 0
-180 -1167 1329 0
-1328 -1330 0
-1329 -1330 0
1328 1329 1330 0
-1181 -1331 0
-1182 -1331 0
1181 1182 1331 0
181 -1332 0
-1331 -1332 0
-181 1331 1332 0
-181 -1333 0
1331 -1333 0
181 -1331 1333 0
-1332 -1334 0
-1333 -1334 0
1332 1333 1334 0
-182 -1335 0
232 -1335 0
182 -232 1335 0
27 -1336 0
33 -1336 0
-27 -33 1336 0
-1132 -1337 0
-1336 -1337 0
1132 1336 1337 0
-1335 -1338 0
-1337 -1338 0
1335 1337 1338 0
182 -1339 0
-232 -1339 0
-182 232 1339 0
-1131 -1340 0
-1132 -1340 0
1131 1132 1340 0
-1339 -1341 0
1340 -1341 0
1339 -1340 1341 0
-1338 -1342 0
-1341 -1342 0
1338 1341 1342 0
-233 -1343 0
-1135 -1343 0
233 1135 1343 0
235 -1344 0
-1343 -1344 0
-235 1343 1344 0
-183 -1345 0
-1344 -1345 0
183 1344 1345 0
-235 -1346 0
-1135 -1346 0
235 1135 1346 0
183 -1347 0
-1346 -1347 0
-183 1346 1347 0
-26 -1348 0
233 -1348 0
26 -233 1348 0
-1347 -1349 0
-1348 -1349 0
1347 1348 1349 0
-1345 -1350 0
1349 -1350 0
1345 -1349 1350 0
-184 -1351 0
-238 -1351 0
184 238 1351 0
184 -1352 0
238 -1352 0
-184 -238 1352 0
-1351 -1353 0
-1352 -1353 0
1351 1352 1353 0
-185 -1354 0
-240 -1354 0
185 240 1354 0
185 -1355 0
240 -1355 0
-185 -240 1355 0
-1354 -1356 0
-1355 -1356 0
1354 1355 1356 0
-27 -1357 0
186 -1357 0
27 -186 1357 0
-242 -1358 0
1357 -1358 0
242 -1357 1358 0
-186 -1359 0
242 -1359 0
186 -242 1359 0
-1358 -1360 0
-1359 -1360 0
1358 1359 1360 0
-187 -1361 0
-1135 -1361 0
187 1135 1361 0
187 -1362 0
1135 -1362 0
-187 -1135 1362 0
-1361 -1363 0
-1362 -1363 0
1361 1362 1363 0
-188 -1364 0
-1138 -1364 0
188 1138 1364 0
188 -1365 0
1138 -1365 0
-188 -1138 1365 0
-1364 -1366 0
-1365 -1366 0
1364 1365 1366 0
-189 -1367 0
-249 -1367 0
189 249 1367 0
189 -1368 0
249 -1368 0
-189 -249 1368 0
-1367 -1369 0
-1368 -1369 0
1367 1368 1369 0
-190 -1370 0
-252 -1370 0
190 252 1370 0
190 -1371 0
252 -1371 0
-190 -252 1371 0
-1370 -1372 0
-1371 -1372 0
1370 1371 1372 0
-191 -1373 0
-255 -1373 0
191 255 1373 0
191 -1374 0
255 -1374 0
-191 -255 1374 0
-1373 -1375 0
-1374 -1375 0
1373 1374 1375 0
-192 -1376 0
-258 -1376 0
192 258 1376 0
192 -1377 0
258 -1377 0
-192 -258 1377 0
-1376 -1378 0
-1377 -1378 0
1376 1377 1378 0
-193 -1379 0
-260 -1379 0
193 260 1379 0
193 -1380 0
260 -1380 0
-193 -260 1380 0
-1379 -1381 0
-1380 -1381 0
1379 1380 1381 0
-194 -1382 0
-1219 -1382 0
194 1219 1382 0
194 -1383 0
1219 -1383 0
-194 -1219 1383 0
-1382 -1384 0
-1383 -1384 0
1382 1383 1384 0
-195 -1385 0
-1222 -1385 0
195 1222 1385 0
195 -1386 0
1222 -1386 0
-195 -1222 1386 0
-1385 -1387 0
-1386 -1387 0
1385 1386 1387 0
-196 -1388 0
-1225 -1388 0
196 1225 1388 0
196 -1389 0
1225 -1389 0
-196 -1225 1389 0
-1388 -1390 0
-1389 -1390 0
1388 1389 1390 0
-197 -1391 0
-269 -1391 0
197 269 1391 0
197 -1392 0
269 -1392 0
-197 -269 1392 0
-1391 -1393 0
-1392 -1393 0
1391 1392 1393 0
-198 -1394 0
-272 -1394 0
198 272 1394 0
198 -1395 0
272 -1395 0
-198 -272 1395 0
-1394 -1396 0
-1395 -1396 0
1394 1395 1396 0
-199 -1397 0
-275 -1397 0
199 275 1397 0
199 -1398 0
275 -1398 0
-199 -275 1398 0
-1397 -1399 0
-1398 -1399 0
1397 1398 1399 0
-1195 -1400 0
-1196 -1400 0
1195 1196 1400 0
200 -1401 0
-1400 -1401 0
-200 1400 1401 0
-200 -1402 0
1400 -1402 0
200 -1400 1402 0
-1401 -1403 0
-1402 -1403 0
1401 1402 1403 0
-201 -1404 0
-280 -1404 0
201 280 1404 0
201 -1405 0
280 -1405 0
-201 -280 1405 0
-1404 -1406 0
-1405 -1406 0
1404 1405 1406 0
-202 -1407 0
-1190 -1407 0
202 1190 1407 0
202 -1408 0
1190 -1408 0
-202 -1190 1408 0
-1407 -1409 0
-1408 -1409 0
1407 1408 1409 0
-203 -1410 0
-1193 -1410 0
203 1193 1410 0
203 -1411 0
1193 -1411 0
-203 -1193 1411 0
-1410 -1412 0
-1411 -1412 0
1410 1411 1412 0
-204 -1413 0
-1196 -1413 0
204 1196 1413 0
204 -1414 0
1196 -1414 0
-204 -1196 1414 0
-1413 -1415 0
-1414 -1415 0
1413 1414 1415 0
-205 -1416 0
-290 -1416 0
205 290 1416 0
205 -1417 0
290 -1417 0
-205 -290 1417 0
-1416 -1418 0
-1417 -1418 0
1416 1417 1418 0
